
<<< setup


<<< generate

Version identifier: 22.1.0.0 | 2022-03-09 | 1a383f8ce
Tried aggregator 1 time.
MIP Presolve eliminated 351 rows and 729 columns.
Reduced MIP has 1135 rows, 18955 columns, and 98487 nonzeros.
Reduced MIP has 18954 binaries, 1 generals, 0 SOSs, and 0 indicators.
Presolve time = 0.07 sec. (67.08 ticks)
Tried aggregator 1 time.
Detecting symmetries...
Reduced MIP has 1135 rows, 18955 columns, and 98487 nonzeros.
Reduced MIP has 18954 binaries, 1 generals, 0 SOSs, and 0 indicators.
Presolve time = 0.06 sec. (58.98 ticks)
Probing time = 0.02 sec. (6.22 ticks)
Clique table members: 1080.
MIP emphasis: balance optimality and feasibility.
MIP search method: dynamic search.
Parallel mode: deterministic, using up to 4 threads.
Root relaxation solution time = 1.59 sec. (1285.96 ticks)

        Nodes                                         Cuts/
   Node  Left     Objective  IInf  Best Integer    Best Bound    ItCnt     Gap

      0     0     1380.0000  1037                   1380.0000       11         
*     0+    0                         1380.0000     1380.0000             0.00%
      0     0        cutoff           1380.0000     1380.0000       11    0.00%
Elapsed time = 53.36 sec. (33081.21 ticks, tree = 0.01 MB, solutions = 1)

Root node processing (before b&c):
  Real time             =   53.36 sec. (33082.19 ticks)
Parallel b&c, 4 threads:
  Real time             =    0.00 sec. (0.00 ticks)
  Sync time (average)   =    0.00 sec.
  Wait time (average)   =    0.00 sec.
                          ------------
Total (root+branch&cut) =   53.36 sec. (33082.19 ticks)

<<< solve


OBJECTIVE: 1380
1 is free in round 8
1 plays 13 white matches, and 13 black matches
2 is free in round 9
2 plays 13 white matches, and 13 black matches
3 is free in round 14
3 plays 13 white matches, and 13 black matches
4 is free in round 5
4 plays 13 white matches, and 13 black matches
5 is free in round 1
5 plays 13 white matches, and 13 black matches
6 is free in round 4
6 plays 13 white matches, and 13 black matches
7 is free in round 13
7 plays 13 white matches, and 13 black matches
8 is free in round 19
8 plays 13 white matches, and 13 black matches
9 is free in round 7
9 plays 13 white matches, and 13 black matches
10 is free in round 22
10 plays 13 white matches, and 13 black matches
11 is free in round 24
11 plays 13 white matches, and 13 black matches
12 is free in round 27
12 plays 13 white matches, and 13 black matches
13 is free in round 3
13 plays 13 white matches, and 13 black matches
14 is free in round 26
14 plays 13 white matches, and 13 black matches
15 is free in round 25
15 plays 13 white matches, and 13 black matches
16 is free in round 6
16 plays 13 white matches, and 13 black matches
17 is free in round 17
17 plays 13 white matches, and 13 black matches
18 is free in round 16
18 plays 13 white matches, and 13 black matches
19 is free in round 10
19 plays 13 white matches, and 13 black matches
20 is free in round 18
20 plays 13 white matches, and 13 black matches
21 is free in round 15
21 plays 13 white matches, and 13 black matches
22 is free in round 12
22 plays 13 white matches, and 13 black matches
23 is free in round 20
23 plays 13 white matches, and 13 black matches
24 is free in round 23
24 plays 13 white matches, and 13 black matches
25 is free in round 2
25 plays 13 white matches, and 13 black matches
26 is free in round 21
26 plays 13 white matches, and 13 black matches
27 is free in round 11
27 plays 13 white matches, and 13 black matches
Slot 1
3 white, 9 black
4 white, 6 black
10 white, 16 black
13 white, 11 black
14 white, 8 black
17 white, 1 black
20 white, 12 black
21 white, 19 black
23 white, 2 black
24 white, 22 black
25 white, 15 black
26 white, 18 black
27 white, 7 black

Slot 2
2 white, 19 black
4 white, 3 black
5 white, 1 black
8 white, 21 black
9 white, 6 black
11 white, 10 black
14 white, 20 black
15 white, 12 black
16 white, 22 black
17 white, 18 black
24 white, 23 black
26 white, 7 black
27 white, 13 black

Slot 3
1 white, 27 black
2 white, 4 black
5 white, 21 black
6 white, 3 black
11 white, 9 black
16 white, 14 black
17 white, 15 black
18 white, 12 black
19 white, 7 black
20 white, 22 black
23 white, 25 black
24 white, 8 black
26 white, 10 black

Slot 4
4 white, 18 black
7 white, 25 black
8 white, 2 black
10 white, 17 black
13 white, 3 black
15 white, 24 black
16 white, 26 black
19 white, 11 black
20 white, 1 black
21 white, 12 black
22 white, 14 black
23 white, 5 black
27 white, 9 black

Slot 5
2 white, 16 black
3 white, 8 black
5 white, 10 black
6 white, 26 black
7 white, 22 black
9 white, 14 black
11 white, 24 black
12 white, 17 black
13 white, 23 black
18 white, 1 black
19 white, 27 black
20 white, 15 black
25 white, 21 black

Slot 6
1 white, 2 black
4 white, 9 black
5 white, 3 black
6 white, 10 black
8 white, 18 black
12 white, 19 black
13 white, 26 black
14 white, 11 black
17 white, 7 black
21 white, 24 black
22 white, 25 black
23 white, 15 black
27 white, 20 black

Slot 7
2 white, 5 black
3 white, 23 black
6 white, 1 black
10 white, 27 black
12 white, 13 black
15 white, 11 black
17 white, 8 black
18 white, 7 black
20 white, 16 black
21 white, 14 black
22 white, 19 black
24 white, 25 black
26 white, 4 black

Slot 8
3 white, 20 black
6 white, 23 black
7 white, 14 black
9 white, 24 black
11 white, 2 black
12 white, 10 black
13 white, 4 black
15 white, 26 black
16 white, 21 black
19 white, 8 black
22 white, 5 black
25 white, 17 black
27 white, 18 black

Slot 9
1 white, 7 black
3 white, 15 black
4 white, 21 black
5 white, 14 black
6 white, 12 black
8 white, 23 black
9 white, 25 black
10 white, 13 black
11 white, 26 black
19 white, 17 black
20 white, 24 black
22 white, 18 black
27 white, 16 black

Slot 10
1 white, 22 black
2 white, 13 black
5 white, 18 black
8 white, 15 black
9 white, 7 black
12 white, 16 black
14 white, 17 black
20 white, 11 black
21 white, 3 black
23 white, 4 black
24 white, 10 black
25 white, 26 black
27 white, 6 black

Slot 11
4 white, 22 black
5 white, 17 black
7 white, 24 black
8 white, 11 black
13 white, 1 black
14 white, 2 black
15 white, 6 black
19 white, 16 black
20 white, 10 black
21 white, 9 black
23 white, 12 black
25 white, 18 black
26 white, 3 black

Slot 12
2 white, 17 black
4 white, 15 black
7 white, 3 black
8 white, 9 black
12 white, 5 black
14 white, 13 black
18 white, 10 black
21 white, 6 black
23 white, 20 black
24 white, 1 black
25 white, 16 black
26 white, 19 black
27 white, 11 black

Slot 13
1 white, 3 black
2 white, 10 black
4 white, 12 black
8 white, 5 black
9 white, 20 black
11 white, 21 black
13 white, 24 black
15 white, 22 black
16 white, 6 black
17 white, 26 black
19 white, 14 black
23 white, 18 black
25 white, 27 black

Slot 14
7 white, 15 black
9 white, 18 black
10 white, 4 black
11 white, 1 black
13 white, 17 black
14 white, 6 black
20 white, 5 black
21 white, 2 black
22 white, 8 black
23 white, 27 black
24 white, 16 black
25 white, 19 black
26 white, 12 black

Slot 15
1 white, 26 black
2 white, 9 black
5 white, 4 black
6 white, 18 black
10 white, 8 black
12 white, 3 black
15 white, 14 black
16 white, 7 black
17 white, 24 black
19 white, 23 black
20 white, 13 black
25 white, 11 black
27 white, 22 black

Slot 16
3 white, 22 black
8 white, 13 black
9 white, 1 black
11 white, 7 black
12 white, 25 black
14 white, 10 black
15 white, 16 black
17 white, 27 black
19 white, 5 black
20 white, 6 black
23 white, 21 black
24 white, 4 black
26 white, 2 black

Slot 17
1 white, 21 black
5 white, 27 black
6 white, 13 black
7 white, 20 black
8 white, 26 black
9 white, 12 black
10 white, 15 black
14 white, 25 black
16 white, 4 black
18 white, 3 black
22 white, 2 black
23 white, 11 black
24 white, 19 black

Slot 18
3 white, 16 black
4 white, 11 black
5 white, 6 black
7 white, 2 black
8 white, 25 black
10 white, 9 black
12 white, 24 black
17 white, 23 black
18 white, 15 black
19 white, 1 black
21 white, 13 black
22 white, 26 black
27 white, 14 black

Slot 19
2 white, 25 black
3 white, 10 black
4 white, 20 black
6 white, 19 black
13 white, 7 black
14 white, 24 black
15 white, 5 black
16 white, 1 black
17 white, 9 black
18 white, 11 black
22 white, 23 black
26 white, 21 black
27 white, 12 black

Slot 20
1 white, 25 black
2 white, 27 black
3 white, 11 black
6 white, 8 black
10 white, 7 black
14 white, 12 black
15 white, 9 black
16 white, 13 black
18 white, 24 black
19 white, 4 black
21 white, 20 black
22 white, 17 black
26 white, 5 black

Slot 21
1 white, 23 black
4 white, 14 black
6 white, 17 black
12 white, 7 black
13 white, 5 black
16 white, 11 black
18 white, 2 black
19 white, 9 black
21 white, 15 black
22 white, 10 black
24 white, 3 black
25 white, 20 black
27 white, 8 black

Slot 22
1 white, 15 black
2 white, 12 black
3 white, 19 black
7 white, 5 black
11 white, 22 black
13 white, 9 black
14 white, 26 black
16 white, 23 black
17 white, 4 black
20 white, 8 black
21 white, 18 black
24 white, 27 black
25 white, 6 black

Slot 23
1 white, 14 black
3 white, 27 black
7 white, 21 black
8 white, 4 black
9 white, 5 black
10 white, 25 black
11 white, 6 black
12 white, 22 black
15 white, 2 black
17 white, 20 black
18 white, 16 black
19 white, 13 black
26 white, 23 black

Slot 24
2 white, 20 black
5 white, 24 black
6 white, 22 black
7 white, 4 black
9 white, 26 black
10 white, 21 black
12 white, 1 black
13 white, 25 black
15 white, 27 black
16 white, 8 black
17 white, 3 black
18 white, 19 black
23 white, 14 black

Slot 25
1 white, 10 black
3 white, 2 black
5 white, 16 black
6 white, 24 black
8 white, 7 black
11 white, 12 black
14 white, 18 black
20 white, 19 black
21 white, 17 black
22 white, 13 black
23 white, 9 black
25 white, 4 black
26 white, 27 black

Slot 26
4 white, 1 black
7 white, 6 black
9 white, 22 black
10 white, 23 black
11 white, 5 black
12 white, 8 black
15 white, 19 black
16 white, 17 black
18 white, 13 black
24 white, 2 black
25 white, 3 black
26 white, 20 black
27 white, 21 black

Slot 27
1 white, 8 black
2 white, 6 black
3 white, 14 black
4 white, 27 black
5 white, 25 black
7 white, 23 black
9 white, 16 black
10 white, 19 black
11 white, 17 black
13 white, 15 black
18 white, 20 black
22 white, 21 black
24 white, 26 black


<<< post process


<<< done

